40
1 0 1
2 0 3
2 1 3
3 0 2
3 1 2
3 2 5
4 0 1
4 1 2
4 2 5
4 3 6
5 0 3
5 1 6
5 2 2
5 3 6
5 4 1
6 0 1
6 1 4
6 2 6
6 3 4
6 4 4
6 5 1
7 0 4
7 1 4
7 2 6
7 3 1
7 4 5
7 5 2
7 6 6
8 0 1
8 1 1
8 2 2
8 3 5
8 4 5
8 5 5
8 6 2
8 7 4
9 0 5
9 1 4
9 2 6
9 3 2
9 4 3
9 5 1
9 6 6
9 7 4
9 8 5
10 0 4
10 1 3
10 2 2
10 3 2
10 4 4
10 5 6
10 6 3
10 7 6
10 8 6
10 9 5
11 0 2
11 1 2
11 2 3
11 3 2
11 4 2
11 5 6
11 6 6
11 7 4
11 8 6
11 9 4
11 10 1
12 0 5
12 1 2
12 2 3
12 3 5
12 4 3
12 5 1
12 6 1
12 7 3
12 8 4
12 9 1
12 10 5
12 11 3
13 0 2
13 1 3
13 2 5
13 3 4
13 4 1
13 5 3
13 6 5
13 7 4
13 8 4
13 9 2
13 10 2
13 11 4
13 12 4
14 0 5
14 1 5
14 2 4
14 3 3
14 4 3
14 5 2
14 6 4
14 7 1
14 8 6
14 9 2
14 10 4
14 11 1
14 12 6
14 13 4
15 0 2
15 1 6
15 2 2
15 3 3
15 4 3
15 5 6
15 6 3
15 7 2
15 8 6
15 9 5
15 10 4
15 11 5
15 12 4
15 13 4
15 14 5
16 0 2
16 1 5
16 2 5
16 3 2
16 4 1
16 5 3
16 6 1
16 7 1
16 8 5
16 9 2
16 10 6
16 11 2
16 12 4
16 13 2
16 14 3
16 15 6
17 0 3
17 1 6
17 2 5
17 3 5
17 4 5
17 5 2
17 6 2
17 7 6
17 8 4
17 9 4
17 10 5
17 11 5
17 12 6
17 13 4
17 14 5
17 15 2
17 16 1
18 0 5
18 1 3
18 2 2
18 3 5
18 4 4
18 5 5
18 6 4
18 7 2
18 8 1
18 9 3
18 10 1
18 11 1
18 12 4
18 13 3
18 14 2
18 15 2
18 16 5
18 17 3
19 0 6
19 1 3
19 2 4
19 3 5
19 4 5
19 5 4
19 6 6
19 7 4
19 8 5
19 9 3
19 10 2
19 11 2
19 12 5
19 13 4
19 14 5
19 15 5
19 16 6
19 17 1
19 18 6
20 0 1
20 1 5
20 2 6
20 3 2
20 4 4
20 5 4
20 6 6
20 7 6
20 8 4
20 9 4
20 10 6
20 11 1
20 12 1
20 13 4
20 14 5
20 15 5
20 16 4
20 17 2
20 18 2
20 19 4
21 0 1
21 1 6
21 2 3
21 3 3
21 4 1
21 5 1
21 6 6
21 7 4
21 8 1
21 9 1
21 10 3
21 11 2
21 12 5
21 13 2
21 14 1
21 15 2
21 16 4
21 17 6
21 18 5
21 19 2
21 20 1
22 0 5
22 1 1
22 2 6
22 3 3
22 4 5
22 5 5
22 6 5
22 7 1
22 8 6
22 9 2
22 10 3
22 11 2
22 12 6
22 13 3
22 14 4
22 15 6
22 16 6
22 17 4
22 18 2
22 19 2
22 20 5
22 21 5
23 0 2
23 1 2
23 2 4
23 3 5
23 4 6
23 5 6
23 6 4
23 7 2
23 8 6
23 9 6
23 10 1
23 11 3
23 12 2
23 13 2
23 14 6
23 15 5
23 16 2
23 17 5
23 18 2
23 19 4
23 20 3
23 21 2
23 22 4
24 0 4
24 1 2
24 2 3
24 3 2
24 4 1
24 5 5
24 6 6
24 7 6
24 8 2
24 9 4
24 10 5
24 11 1
24 12 2
24 13 6
24 14 6
24 15 6
24 16 6
24 17 3
24 18 1
24 19 1
24 20 6
24 21 5
24 22 4
24 23 6
25 0 5
25 1 1
25 2 1
25 3 2
25 4 3
25 5 6
25 6 2
25 7 1
25 8 6
25 9 6
25 10 2
25 11 5
25 12 2
25 13 3
25 14 3
25 15 2
25 16 3
25 17 3
25 18 4
25 19 2
25 20 1
25 21 2
25 22 5
25 23 5
25 24 6
26 0 1
26 1 6
26 2 6
26 3 5
26 4 2
26 5 2
26 6 3
26 7 2
26 8 3
26 9 4
26 10 2
26 11 4
26 12 2
26 13 5
26 14 2
26 15 4
26 16 4
26 17 3
26 18 6
26 19 3
26 20 6
26 21 2
26 22 1
26 23 5
26 24 3
26 25 2
27 0 2
27 1 3
27 2 4
27 3 2
27 4 1
27 5 2
27 6 2
27 7 5
27 8 1
27 9 5
27 10 2
27 11 1
27 12 5
27 13 3
27 14 1
27 15 5
27 16 2
27 17 1
27 18 6
27 19 2
27 20 3
27 21 4
27 22 5
27 23 2
27 24 5
27 25 4
27 26 6
28 0 2
28 1 3
28 2 4
28 3 6
28 4 4
28 5 1
28 6 2
28 7 5
28 8 4
28 9 3
28 10 1
28 11 6
28 12 4
28 13 5
28 14 5
28 15 6
28 16 3
28 17 1
28 18 4
28 19 1
28 20 2
28 21 1
28 22 6
28 23 5
28 24 4
28 25 1
28 26 3
28 27 3
29 0 5
29 1 5
29 2 3
29 3 6
29 4 6
29 5 2
29 6 6
29 7 5
29 8 5
29 9 5
29 10 1
29 11 5
29 12 3
29 13 1
29 14 5
29 15 1
29 16 1
29 17 2
29 18 1
29 19 4
29 20 3
29 21 5
29 22 2
29 23 3
29 24 3
29 25 2
29 26 6
29 27 4
29 28 2
30 0 4
30 1 2
30 2 2
30 3 3
30 4 3
30 5 5
30 6 2
30 7 1
30 8 5
30 9 2
30 10 1
30 11 1
30 12 5
30 13 4
30 14 1
30 15 3
30 16 1
30 17 6
30 18 4
30 19 5
30 20 4
30 21 1
30 22 2
30 23 4
30 24 4
30 25 3
30 26 4
30 27 6
30 28 6
30 29 2
31 0 3
31 1 4
31 2 3
31 3 3
31 4 1
31 5 5
31 6 2
31 7 1
31 8 1
31 9 4
31 10 1
31 11 3
31 12 6
31 13 2
31 14 1
31 15 4
31 16 4
31 17 1
31 18 4
31 19 6
31 20 6
31 21 5
31 22 5
31 23 4
31 24 4
31 25 3
31 26 3
31 27 4
31 28 1
31 29 3
31 30 5
32 0 4
32 1 3
32 2 6
32 3 2
32 4 6
32 5 4
32 6 2
32 7 4
32 8 5
32 9 2
32 10 3
32 11 6
32 12 2
32 13 4
32 14 6
32 15 6
32 16 6
32 17 3
32 18 5
32 19 5
32 20 5
32 21 6
32 22 5
32 23 5
32 24 2
32 25 1
32 26 5
32 27 1
32 28 6
32 29 2
32 30 1
32 31 3
33 0 6
33 1 6
33 2 5
33 3 4
33 4 6
33 5 1
33 6 5
33 7 5
33 8 6
33 9 4
33 10 3
33 11 1
33 12 1
33 13 5
33 14 3
33 15 4
33 16 2
33 17 3
33 18 3
33 19 2
33 20 1
33 21 4
33 22 1
33 23 5
33 24 5
33 25 3
33 26 2
33 27 4
33 28 5
33 29 2
33 30 4
33 31 5
33 32 5
34 0 2
34 1 6
34 2 3
34 3 5
34 4 5
34 5 6
34 6 5
34 7 4
34 8 2
34 9 2
34 10 1
34 11 3
34 12 4
34 13 5
34 14 5
34 15 4
34 16 6
34 17 1
34 18 1
34 19 5
34 20 1
34 21 2
34 22 6
34 23 6
34 24 2
34 25 6
34 26 3
34 27 1
34 28 5
34 29 3
34 30 4
34 31 3
34 32 1
34 33 5
35 0 2
35 1 3
35 2 5
35 3 4
35 4 6
35 5 4
35 6 6
35 7 1
35 8 6
35 9 4
35 10 3
35 11 3
35 12 1
35 13 6
35 14 1
35 15 3
35 16 5
35 17 4
35 18 3
35 19 5
35 20 1
35 21 6
35 22 4
35 23 5
35 24 5
35 25 3
35 26 1
35 27 5
35 28 4
35 29 5
35 30 4
35 31 2
35 32 2
35 33 1
35 34 5
36 0 4
36 1 6
36 2 3
36 3 2
36 4 5
36 5 5
36 6 3
36 7 5
36 8 1
36 9 2
36 10 5
36 11 3
36 12 1
36 13 1
36 14 6
36 15 3
36 16 1
36 17 6
36 18 3
36 19 2
36 20 5
36 21 1
36 22 2
36 23 2
36 24 1
36 25 1
36 26 5
36 27 4
36 28 1
36 29 5
36 30 1
36 31 3
36 32 3
36 33 4
36 34 5
36 35 1
37 0 3
37 1 4
37 2 6
37 3 5
37 4 3
37 5 2
37 6 1
37 7 1
37 8 2
37 9 6
37 10 2
37 11 2
37 12 3
37 13 3
37 14 3
37 15 2
37 16 6
37 17 1
37 18 6
37 19 6
37 20 3
37 21 1
37 22 5
37 23 1
37 24 5
37 25 1
37 26 2
37 27 2
37 28 2
37 29 3
37 30 2
37 31 6
37 32 4
37 33 4
37 34 2
37 35 3
37 36 4
38 0 6
38 1 5
38 2 6
38 3 2
38 4 1
38 5 1
38 6 3
38 7 1
38 8 5
38 9 6
38 10 6
38 11 5
38 12 1
38 13 3
38 14 6
38 15 5
38 16 4
38 17 2
38 18 3
38 19 1
38 20 4
38 21 4
38 22 2
38 23 5
38 24 1
38 25 2
38 26 6
38 27 2
38 28 2
38 29 4
38 30 2
38 31 5
38 32 3
38 33 4
38 34 3
38 35 3
38 36 2
38 37 3
39 0 6
39 1 5
39 2 2
39 3 5
39 4 6
39 5 1
39 6 2
39 7 1
39 8 2
39 9 3
39 10 3
39 11 1
39 12 4
39 13 2
39 14 5
39 15 3
39 16 2
39 17 6
39 18 4
39 19 2
39 20 5
39 21 2
39 22 5
39 23 3
39 24 1
39 25 6
39 26 6
39 27 2
39 28 5
39 29 5
39 30 3
39 31 3
39 32 3
39 33 1
39 34 2
39 35 1
39 36 5
39 37 4
39 38 2
